NAME : to_solve
COMMENT : to be solved with tsp_solver (Copyright Chase Yalon)
TYPE : TSP
DIMENSION: 10
EDGE_WEIGHT_TYPE : EUC_2D
NODE_COORD_SECTION
1    353.03    406.8
2    260.64    40.92
3    272.2    490.76
4    253.13    337.03
5    481.18    472.39
6    428.68    322.28
7    32.59    73.46
8    300.14    24.05
9    348.98    426.7
10    240.32    279.01
